flow=[(0,1,1)(0,2,1)(0,3,1)(0,6,3)(0,7,1)(0,10,1)(0,13,1)(1,2,1)(1,5,2)(1,6,5)(1,7,1)(2,0,1)(2,3,1)(2,5,1)(2,7,2)(3,6,3)(3,7,1)(3,10,1)(3,15,1)(4,0,1)(4,2,1)(4,5,1)(4,6,5)(4,7,2)(4,8,1)(4,9,1)(4,10,1)(4,12,1)(5,6,1)(5,7,1)(5,12,1)(5,13,1)(5,14,1)(6,0,1)(6,3,1)(6,4,2)(6,5,2)(6,7,6)(6,9,1)(6,10,3)(6,14,1)(7,6,1)(7,10,1)(7,11,1)(7,15,1)(8,4,2)(8,6,1)(9,3,2)(9,4,2)(9,5,1)(9,6,3)(9,7,1)(9,10,2)(9,13,3)(9,14,1)(10,3,1)(10,5,1)(10,6,6)(10,7,2)(10,8,1)(10,9,1)(11,4,1)(11,5,2)(11,7,1)(15,8,1)(0,0,1)(6,6,5)(9,9,3)(10,10,4)];
